50 2111
625 125 750 750 500 250 1000 100 1000 600 625 1125 1000 100 900 500 1125 200 125 600 125 125 200 375 100 800 600 1250 100 200 125 125 400 1250 1000 800 100 700 400 100 200 400 1000 875 625 500 1000 750 300 500 
710 142 852 852 560 284 1120 112 1120 672 710 1278 1136 112 1008 560 1278 224 142 672 142 142 224 426 112 896 672 1420 112 224 142 142 448 1420 1120 896 112 784 448 112 224 448 1120 994 710 568 1120 852 336 560 
